 # Version information for this restart file 
 # current date 2014-07-20 23:47:05.199
 # current working dir /Users/carlo/Work/apk/cp2k
 # Program compiled at                              Fri 18 Jul 2014 12:50:46 BST
 # Program compiled on                                      achille.ch.cam.ac.uk
 # Program compiled for                           Darwin-IntelMacintosh-gfortran
 # Source code revision number                                         svn:13632
 &GLOBAL
   PREFERRED_FFT_LIBRARY  FFTW3
   PRINT_LEVEL  LOW
   PROJECT_NAME suram 
   RUN_TYPE GEO_OPT 
 &END GLOBAL
 &MOTION
   &GEO_OPT
     OPTIMIZER  BFGS
     MAX_ITER  300
     STEP_START_VAL  0
   &END GEO_OPT
 &END MOTION
 &FORCE_EVAL
   METHOD  QS
   &DFT
     BASIS_SET_FILE_NAME EMSL_BASIS_SETS 
     POTENTIAL_FILE_NAME POTENTIAL
     WFN_RESTART_FILE_NAME suram-RESTART.wfn
     CHARGE  0
    &MGRID
      CUTOFF 400
      REL_CUTOFF 50 
    &END MGRID
     &SCF
      SCF_GUESS RESTART 
      EPS_SCF 1.0E-6
      MAX_SCF 100 
      &OT
        PRECONDITIONER FULL_ALL
        MINIMIZER DIIS
      &END OT
       &OUTER_SCF
          EPS_SCF 1.0E-6
          MAX_SCF 5
       &END
     &END SCF
    &QS 
      METHOD GAPW
      EPS_PGF_ORB 1.0E-50 
    &END QS 
     &XC
      &XC_FUNCTIONAL
       &LYP
         SCALE_C 0.81
       &END
       &BECKE88
         SCALE_X 0.72
       &END
       &VWN
         FUNCTIONAL_TYPE VWN5
         SCALE_C 0.19
       &END 
       &XALPHA
         SCALE_X 0.08
       &END 
      &END XC_FUNCTIONAL
      &HF
        FRACTION 0.20
        &SCREENING
          EPS_SCHWARZ 1.0E-10
        &END
        &MEMORY
          MAX_MEMORY 1000
        &END
      &END
     &END XC
     &POISSON
       PERIODIC  NONE
       POISSON_SOLVER WAVELET
     &END POISSON
   &END DFT
   &SUBSYS
     &CELL
       ABC [angstrom] 21 21 21
       PERIODIC  NONE
     &END CELL
     &COORD
N1    1.2508496418450717E+01    1.2088771234999754E+01    1.0329783629491995E+01
C2    1.3210686517437320E+01    1.3242881467015776E+01    1.0736327562245625E+01
C3    1.1654255143228449E+01    1.1283487475178980E+01    1.1100510279574960E+01
O4    1.3153450375729628E+01    1.3721690308193020E+01    1.1870585754068358E+01
C6    1.0640783902785364E+01    1.0440219419174545E+01    1.0472960736744534E+01
C7    1.1801303415343252E+01    1.1275900654569055E+01    1.2497373729041200E+01
C10    9.9336372855956778E+00    9.4833659367290455E+00    1.1332060435866861E+01
C11    1.0224122308082551E+01    1.0453788240872214E+01    9.0784621918792379E+00
C12    1.1058873652307405E+01    1.0407907566229078E+01    1.3315370508225149E+01
C15    1.0172378137444236E+01    9.5033530738069381E+00    1.2748661339984846E+01
C16    9.0020586916420520E+00    8.5571644945149128E+00    1.0766413854806215E+01
S17    1.0772476603412349E+01    1.1610028601408830E+01    7.7528549581025015E+00
C18    9.2811048029155501E+00    9.5675550423696691E+00    8.5683645832287993E+00
S21    9.3701691973593189E+00    8.3593299482538672E+00    1.3909869527811203E+01
C22    8.6984658648034276E+00    8.6062646752073384E+00    9.4213495730732575E+00
O23    1.2246170387328499E+01    1.1523023388247665E+01    7.5799898331829709E+00
O24    9.8849223400430333E+00    1.1460542904595171E+01    6.5804695967928142E+00
O25    1.0452521575685843E+01    1.3111349981104313E+01    8.4245181328357788E+00
O28    9.3948953971667848E+00    6.9656185754659043E+00    1.3404357584955800E+01
O29    9.8494660755847789E+00    8.6608072726718746E+00    1.5274894363413409E+01
O30    7.7966421442795122E+00    8.9380298364958897E+00    1.3732487350633798E+01
S31    7.4913405569302816E+00    7.4440606115871670E+00    8.7266821226749354E+00
O34    6.1226629961574810E+00    8.4208609304604316E+00    8.8385521589599847E+00
O35    7.3412376515982558E+00    6.3083206621959773E+00    9.6547157726718940E+00
O36    7.7667665110059838E+00    7.2511560673102728E+00    7.2840175777022260E+00
C72    1.4080680060550408E+01    1.3847591268471108E+01    9.6317693759554519E+00
HN1    1.2655753567985709E+01    1.1813546274606676E+01    9.3549008379224414E+00
H7    1.2521122473114081E+01    1.1959316267504390E+01    1.2940124050129679E+01
H01    1.4022268375360399E+01    1.4941789389007679E+01    9.7092461789232480E+00
H02    1.3792321396302205E+01    1.3529379786602643E+01    8.6202987486404670E+00
H03    1.5130831248172505E+01    1.3559945739299955E+01    9.8057570734494437E+00
H12    1.1203740374190206E+01    1.0416827209197598E+01    1.4395965238932719E+01
H16    8.5348158614240592E+00    7.8029153768509714E+00    1.1396128764254085E+01
H18    8.9933116407834017E+00    9.6126934479665493E+00    7.5189367046235898E+00
H25    9.6999268791434456E+00    1.3471392769260047E+01    7.9025139162675817E+00
H30    7.2098598863517411E+00    8.2519339372446812E+00    1.4126539554595018E+01
H34    5.6188624705296659E+00    8.2538669386615631E+00    8.0099316393249147E+00
     &END COORD
     &KIND H
       BASIS_SET 6-31Gxx  
       POTENTIAL ALL 
     &END KIND
     &KIND C
       BASIS_SET 6-31Gxx  
       POTENTIAL ALL 
     &END KIND
     &KIND N
       BASIS_SET 6-31Gxx  
       POTENTIAL ALL 
     &END KIND
     &KIND O
       BASIS_SET 6-31Gxx  
       POTENTIAL ALL 
     &END KIND
     &KIND S
       BASIS_SET 6-31Gxx  
       POTENTIAL ALL 
     &END KIND
   &END SUBSYS
 &END FORCE_EVAL
