 # Version information for this restart file 
 # current date 2017-06-21 22:49:40.766
 # current working dir /mnt/scratch/carlo/suramin/cp2k/part1/b3lyp
 # Program compiled at                           ven 16 giu 2017, 10.05.36, CEST
 # Program compiled on                                                    monaco
 # Program compiled for                                    Linux-x86-64-gfortran
 # Source code revision number                                         svn:17462
 &GLOBAL
   PREFERRED_FFT_LIBRARY  FFTW3
   PRINT_LEVEL  LOW
   PROJECT_NAME suram
   RUN_TYPE ENERGY 
 &END GLOBAL
 &FORCE_EVAL
   METHOD  QS
   &DFT
     BASIS_SET_FILE_NAME EMSL_BASIS_SETS
     POTENTIAL_FILE_NAME POTENTIAL
     WFN_RESTART_FILE_NAME suram-RESTART.wfn
     CHARGE  0
     &SCF
       MAX_SCF  100
       EPS_SCF     9.9999999999999995E-07
       SCF_GUESS  RESTART
       &OT  T
         MINIMIZER  DIIS
         PRECONDITIONER  FULL_ALL
       &END OT
       &OUTER_SCF  T
         EPS_SCF     9.9999999999999995E-07
         MAX_SCF  5
       &END OUTER_SCF
     &END SCF
     &QS
       EPS_PGF_ORB     1.0000000000000000E-50
       METHOD  GAPW
     &END QS
     &MGRID
       CUTOFF     4.0000000000000000E+02
       REL_CUTOFF     5.0000000000000000E+01
     &END MGRID
     &XC
       DENSITY_CUTOFF     1.0000000000000000E-10
       GRADIENT_CUTOFF     1.0000000000000000E-10
       TAU_CUTOFF     1.0000000000000000E-10
       &XC_FUNCTIONAL  NO_SHORTCUT
         &BECKE88  T
           SCALE_X     7.1999999999999997E-01
         &END BECKE88
         &LYP  T
           SCALE_C     8.1000000000000005E-01
         &END LYP
         &VWN  T
           SCALE_C     1.9000000000000000E-01
           FUNCTIONAL_TYPE  VWN5
         &END VWN
         &XALPHA  T
           SCALE_X     8.0000000000000002E-02
         &END XALPHA
       &END XC_FUNCTIONAL
       &HF
         FRACTION     2.0000000000000001E-01
         &SCREENING
           EPS_SCHWARZ     1.0000000000000000E-10
         &END SCREENING
         &MEMORY
           MAX_MEMORY  1000
         &END MEMORY
       &END HF
     &END XC
     &POISSON
       POISSON_SOLVER  WAVELET
       PERIODIC  NONE
     &END POISSON
   &END DFT
   &SUBSYS
     &CELL
       A     2.1000000000000000E+01    0.0000000000000000E+00    0.0000000000000000E+00
       B     0.0000000000000000E+00    2.1000000000000000E+01    0.0000000000000000E+00
       C     0.0000000000000000E+00    0.0000000000000000E+00    2.1000000000000000E+01
       PERIODIC  NONE
       MULTIPLE_UNIT_CELL  1 1 1
     &END CELL
     &COORD
N1    1.2512651499504067E+01    1.2031258737604380E+01    1.0313697246356973E+01
C2    1.3157725154743313E+01    1.3208845238529767E+01    1.0693592897918901E+01
C3    1.1661255645337299E+01    1.1246374745076810E+01    1.1092332117237062E+01
O4    1.3042119500385974E+01    1.3721095360055827E+01    1.1794584337949066E+01
C6    1.0640827565912474E+01    1.0419301828849136E+01    1.0480425307198580E+01
C7    1.1822469396941623E+01    1.1237397446150895E+01    1.2474384103654470E+01
C10    9.9469086547101480E+00    9.4730628276813054E+00    1.1333236150843547E+01
C11    1.0213279436514965E+01    1.0450413574406015E+01    9.0965112855890400E+00
C12    1.1081362851901298E+01    1.0381862926656334E+01    1.3295506081891066E+01
C15    1.0190563365929805E+01    9.4903477673614134E+00    1.2740806972201366E+01
C16    9.0194349339517803E+00    8.5510542754044767E+00    1.0773300295300185E+01
S17    1.0729824781393404E+01    1.1621830030151525E+01    7.8104821714626746E+00
C18    9.2786273618953725E+00    9.5690381289857811E+00    8.5940175652498283E+00
S21    9.3919096264221906E+00    8.3705496868932094E+00    1.3888624803332325E+01
C22    8.7108711517642856E+00    8.6021334753979186E+00    9.4406297824412899E+00
O23    1.2172739299337900E+01    1.1520313521305605E+01    7.5859776265851258E+00
O24    9.8131724301990690E+00    1.1518507693624638E+01    6.6821119750960580E+00
O25    1.0459744193488152E+01    1.3073832876877631E+01    8.5117231341506479E+00
O28    9.4124889130288327E+00    6.9935865722763548E+00    1.3397692370336934E+01
O29    9.8686590649630013E+00    8.6724531193195347E+00    1.5230656169806052E+01
O30    7.8488859802097863E+00    8.9163626254839379E+00    1.3725602688679473E+01
S31    7.5244922013405988E+00    7.4466673956084595E+00    8.7653388241439671E+00
O34    6.1967643183141803E+00    8.4163321310763965E+00    8.7580397055307735E+00
O35    7.3190428903862070E+00    6.3800338415937992E+00    9.7305620899266803E+00
O36    7.8493020280641090E+00    7.1719917213392490E+00    7.3684836071665600E+00
C72    1.4049406108758877E+01    1.3789069315712835E+01    9.6098373808316264E+00
HN1    1.2678907647058448E+01    1.1733972538088299E+01    9.3581262527750155E+00
H7    1.2550885922456750E+01    1.1905363085252342E+01    1.2910612219194022E+01
H01    1.4035283242719990E+01    1.4876591747830421E+01    9.7005422608896588E+00
H02    1.3750556628646823E+01    1.3493127064878626E+01    8.6012667630713793E+00
H03    1.5078780014684016E+01    1.3453105518741920E+01    9.7808260532157583E+00
H12    1.1234366200983093E+01    1.0390555076853246E+01    1.4368533160817710E+01
H16    8.5618349926749531E+00    7.7938256868639177E+00    1.1396323921019583E+01
H18    8.9811418028391667E+00    9.6229180192361259E+00    7.5538387855843254E+00
H25    9.6669867887276624E+00    1.3448078957536232E+01    8.0881307730745640E+00
H30    7.2572106562295557E+00    8.1915111772126767E+00    1.3997202832191197E+01
H34    5.7492132441611901E+00    8.2698950485182188E+00    7.9059804516847043E+00
     &END COORD
     &KIND H
       BASIS_SET 6-31Gxx
       POTENTIAL ALL
       &POTENTIAL
 1 0 0
  0.2000000000000000E+00
         # Potential name:  ALL  for symbol:  H
         # Potential read from the potential filename: POTENTIAL
       &END POTENTIAL
     &END KIND
     &KIND C
       BASIS_SET 6-31Gxx
       POTENTIAL ALL
       &POTENTIAL
 4 2 0
  0.3488304500000000E+00
         # Potential name:  ALL  for symbol:  C
         # Potential read from the potential filename: POTENTIAL
       &END POTENTIAL
     &END KIND
     &KIND N
       BASIS_SET 6-31Gxx
       POTENTIAL ALL
       &POTENTIAL
 4 3 0
  0.2891792300000000E+00
         # Potential name:  ALL  for symbol:  N
         # Potential read from the potential filename: POTENTIAL
       &END POTENTIAL
     &END KIND
     &KIND O
       BASIS_SET 6-31Gxx
       POTENTIAL ALL
       &POTENTIAL
 4 4 0
  0.2476208600000000E+00
         # Potential name:  ALL  for symbol:  O
         # Potential read from the potential filename: POTENTIAL
       &END POTENTIAL
     &END KIND
     &KIND S
       BASIS_SET 6-31Gxx
       POTENTIAL ALL
       &POTENTIAL
 6 10 0
  0.4200000000000000E+00
         # Potential name:  ALL  for symbol:  S
         # Potential read from the potential filename: POTENTIAL
       &END POTENTIAL
     &END KIND
     &TOPOLOGY
       NUMBER_OF_ATOMS  37
       MULTIPLE_UNIT_CELL  1 1 1
     &END TOPOLOGY
   &END SUBSYS
   &PROPERTIES
     &RESP
       STRIDE  1
      &SPHERE_SAMPLING
        AUTO_VDW_RADII_TABLE CAMBRIDGE
        AUTO_RMIN_SCALE 1.0
        AUTO_RMAX_SCALE 3.0
      &END
       &CONSTRAINT
         EQUAL_CHARGES  T
         ATOM_LIST  16 17 19 20 24 25
       &END CONSTRAINT
       &CONSTRAINT
         EQUAL_CHARGES  T
         ATOM_LIST  18 21 23 
       &END CONSTRAINT
       &CONSTRAINT
         EQUAL_CHARGES  T
         ATOM_LIST  35 36 37 
       &END CONSTRAINT
       &CONSTRAINT
         EQUAL_CHARGES  T
         ATOM_LIST  12 14 22 
       &END CONSTRAINT
       &CONSTRAINT
         EQUAL_CHARGES  T
         ATOM_LIST  8 10 15 
       &END CONSTRAINT
       &CONSTRAINT
         EQUAL_CHARGES  T
         ATOM_LIST  11 13 
       &END CONSTRAINT
       &CONSTRAINT
         EQUAL_CHARGES  T
         ATOM_LIST  33 34 
       &END CONSTRAINT
       &CONSTRAINT
         EQUAL_CHARGES  T
         ATOM_LIST  5 7 
       &END CONSTRAINT
       &CONSTRAINT
         EQUAL_CHARGES  T
         ATOM_LIST  6 9 
       &END CONSTRAINT
       &CONSTRAINT
         EQUAL_CHARGES  T
         ATOM_LIST  28 32 
       &END CONSTRAINT
       &CONSTRAINT
         EQUAL_CHARGES  T
         ATOM_LIST  29 30 31 
       &END CONSTRAINT
       &CONSTRAINT
         ATOM_LIST 29 30 31 26
         ATOM_COEF 1.0 1.0 1.0 -1.0
         TARGET 0.0
       &END
      &PRINT
       &COORD_FIT_POINTS
       &END
      &END
     &END RESP
   &END PROPERTIES
 &END FORCE_EVAL
